============================[ Problem Statistics ]=============================|                                                                             ||  Number of variables:          4242                                         ||  Number of clauses:           10398                                         ||  Parse time:                   0.79 s                                       ||                                                                             |============================[ Search Statistics ]==============================| Conflicts |          ORIGINAL         |          LEARNT          | Progress ||           |    Vars  Clauses Literals |    Limit  Clauses Lit/Cl |          |===============================================================================|       100 |    1591     6603  1252774 |     2421      100     53 | 62.501 % ||       250 |    1591     6603  1252774 |     2663      250     75 | 62.495 % |===============================================================================restarts              : 4conflicts             : 424            (354 /sec)decisions             : 784            (0.00 % random) (655 /sec)propagations          : 13692          (11439 /sec)conflict literals     : 35556          (94.50 % deleted)CPU time              : 1.197 sSATISFIABLE